p cnf 156 206
-1 151 0 
-2 43 50 72 83 84 100 116 121 152 0 
-3 101 151 0 
-4 35 42 45 46 47 48 79 85 86 87 88 89 90 91 92 93 94 95 96 97 98 99 102 124 125 126 127 128 129 130 131 132 134 136 138 139 140 150 151 0 
-5 9 32 53 62 64 148 151 0 
-6 7 8 21 71 109 111 141 143 149 151 0 
-7 6 8 21 71 109 111 141 143 149 151 0 
-8 6 7 21 71 109 111 141 143 149 151 0 
-9 5 32 53 62 64 148 151 0 
-10 153 0 
-11 113 -12 26 33 68 152 0 
-13 17 18 19 20 24 61 76 104 105 115 146 -10 153 0 
-14 28 57 107 110 -15 25 31 58 119 120 -16 153 0 
-17 13 18 19 20 24 61 76 104 105 115 146 -10 153 0 
-18 13 17 19 20 24 61 76 104 105 115 146 -10 153 0 
-19 13 17 18 20 24 61 76 104 105 115 146 -10 153 0 
-20 13 17 18 19 24 61 76 104 105 115 146 -10 153 0 
-21 6 7 8 71 109 111 141 143 149 -22 -23 55 -24 13 17 18 19 20 61 76 104 105 115 146 153 0 
-25 15 31 58 119 120 -16 153 0 
-26 12 33 68 -27 66 151 0 
-22 -28 14 57 107 110 -29 65 151 0 
-12 26 33 68 -10 152 0 
-30 -10 151 0 
-31 15 25 58 119 120 154 0 
-32 5 9 53 62 64 148 151 0 
-11 113 152 0 
-33 12 26 68 151 0 
-34 151 0 
-35 4 42 45 46 47 48 79 85 86 87 88 89 90 91 92 93 94 95 96 97 98 99 102 124 125 126 127 128 129 130 131 132 134 136 138 139 140 150 155 0 
-5 9 32 53 62 64 148 155 0 
-36 77 -37 151 0 
-27 66 -16 151 0 
-38 51 67 69 147 -16 151 0 
-26 12 33 68 151 0 
-39 -40 151 0 
-41 52 54 60 82 123 152 0 
-42 4 35 45 46 47 48 79 85 86 87 88 89 90 91 92 93 94 95 96 97 98 99 102 124 125 126 127 128 129 130 131 132 134 136 138 139 140 150 153 0 
-43 2 50 72 83 84 100 116 121 153 0 
-44 151 0 
-45 4 35 42 46 47 48 79 85 86 87 88 89 90 91 92 93 94 95 96 97 98 99 102 124 125 126 127 128 129 130 131 132 134 136 138 139 140 150 151 0 
-46 4 35 42 45 47 48 79 85 86 87 88 89 90 91 92 93 94 95 96 97 98 99 102 124 125 126 127 128 129 130 131 132 134 136 138 139 140 150 151 0 
-47 4 35 42 45 46 48 79 85 86 87 88 89 90 91 92 93 94 95 96 97 98 99 102 124 125 126 127 128 129 130 131 132 134 136 138 139 140 150 151 0 
-48 4 35 42 45 46 47 79 85 86 87 88 89 90 91 92 93 94 95 96 97 98 99 102 124 125 126 127 128 129 130 131 132 134 136 138 139 140 150 151 0 
-49 151 0 
-50 2 43 72 83 84 100 116 121 151 0 
-51 38 67 69 147 -16 151 0 
-52 41 54 60 82 123 151 0 
-53 5 9 32 62 64 148 -10 152 0 
-27 66 151 0 
-54 41 52 60 82 123 151 0 
-38 51 67 69 147 -10 151 0 
-54 41 52 60 82 123 -10 151 0 
-55 23 151 0 
-12 26 33 68 152 0 
-56 153 0 
-57 14 28 107 110 154 0 
-58 15 25 31 119 120 -16 153 0 
-59 70 80 122 144 -16 153 0 
-60 41 52 54 82 123 151 0 
-61 13 17 18 19 20 24 76 104 105 115 146 151 0 
-62 5 9 32 53 64 148 151 0 
-22 -63 -43 2 50 72 83 84 100 116 121 151 0 
-64 5 9 32 53 62 148 151 0 
-65 29 151 0 
-66 27 -16 153 0 
-67 38 51 69 147 -16 153 0 
-68 12 26 33 151 0 
-69 38 51 67 147 -37 151 0 
-64 5 9 32 53 62 148 -16 151 0 
-70 59 80 122 144 -16 151 0 
-64 5 9 32 53 62 148 152 0 
-71 6 7 8 21 109 111 141 143 149 151 0 
-72 2 43 50 83 84 100 116 121 151 0 
-30 151 0 
-73 152 0 
-59 70 80 122 144 -43 2 50 72 83 84 100 116 121 -10 153 0 
-19 13 17 18 20 24 61 76 104 105 115 146 -59 70 80 122 144 153 0 
-55 23 -16 151 0 
-54 41 52 60 82 123 -19 13 17 18 20 24 61 76 104 105 115 146 -38 51 67 69 147 151 0 
-22 -27 66 -19 13 17 18 20 24 61 76 104 105 115 146 -54 41 52 60 82 123 151 0 
-55 23 -37 151 0 
-74 151 0 
-22 -68 12 26 33 -27 66 151 0 
-22 -27 66 -19 13 17 18 20 24 61 76 104 105 115 146 -54 41 52 60 82 123 -16 151 0 
-75 -16 151 0 
-51 38 67 69 147 -10 151 0 
-36 77 151 0 
-76 13 17 18 19 20 24 61 104 105 115 146 -75 -77 36 151 0 
-38 51 67 69 147 -70 59 80 122 144 -77 36 -37 151 0 
-12 26 33 68 -77 36 152 0 
-27 66 -78 103 -37 151 0 
-9 5 32 53 62 64 148 155 0 
-79 4 35 42 45 46 47 48 85 86 87 88 89 90 91 92 93 94 95 96 97 98 99 102 124 125 126 127 128 129 130 131 132 134 136 138 139 140 150 151 0 
-62 5 9 32 53 64 148 153 0 
-80 59 70 122 144 151 0 
-81 153 0 
-43 2 50 72 83 84 100 116 121 151 0 
-82 41 52 54 60 123 -83 2 43 50 72 84 100 116 121 154 0 
-27 66 -77 36 -37 151 0 
-84 2 43 50 72 83 100 116 121 151 0 
-85 4 35 42 45 46 47 48 79 86 87 88 89 90 91 92 93 94 95 96 97 98 99 102 124 125 126 127 128 129 130 131 132 134 136 138 139 140 150 151 0 
-86 4 35 42 45 46 47 48 79 85 87 88 89 90 91 92 93 94 95 96 97 98 99 102 124 125 126 127 128 129 130 131 132 134 136 138 139 140 150 151 0 
-87 4 35 42 45 46 47 48 79 85 86 88 89 90 91 92 93 94 95 96 97 98 99 102 124 125 126 127 128 129 130 131 132 134 136 138 139 140 150 151 0 
-88 4 35 42 45 46 47 48 79 85 86 87 89 90 91 92 93 94 95 96 97 98 99 102 124 125 126 127 128 129 130 131 132 134 136 138 139 140 150 151 0 
-89 4 35 42 45 46 47 48 79 85 86 87 88 90 91 92 93 94 95 96 97 98 99 102 124 125 126 127 128 129 130 131 132 134 136 138 139 140 150 151 0 
-90 4 35 42 45 46 47 48 79 85 86 87 88 89 91 92 93 94 95 96 97 98 99 102 124 125 126 127 128 129 130 131 132 134 136 138 139 140 150 151 0 
-91 4 35 42 45 46 47 48 79 85 86 87 88 89 90 92 93 94 95 96 97 98 99 102 124 125 126 127 128 129 130 131 132 134 136 138 139 140 150 151 0 
-92 4 35 42 45 46 47 48 79 85 86 87 88 89 90 91 93 94 95 96 97 98 99 102 124 125 126 127 128 129 130 131 132 134 136 138 139 140 150 151 0 
-93 4 35 42 45 46 47 48 79 85 86 87 88 89 90 91 92 94 95 96 97 98 99 102 124 125 126 127 128 129 130 131 132 134 136 138 139 140 150 151 0 
-94 4 35 42 45 46 47 48 79 85 86 87 88 89 90 91 92 93 95 96 97 98 99 102 124 125 126 127 128 129 130 131 132 134 136 138 139 140 150 153 0 
-95 4 35 42 45 46 47 48 79 85 86 87 88 89 90 91 92 93 94 96 97 98 99 102 124 125 126 127 128 129 130 131 132 134 136 138 139 140 150 151 0 
-96 4 35 42 45 46 47 48 79 85 86 87 88 89 90 91 92 93 94 95 97 98 99 102 124 125 126 127 128 129 130 131 132 134 136 138 139 140 150 151 0 
-97 4 35 42 45 46 47 48 79 85 86 87 88 89 90 91 92 93 94 95 96 98 99 102 124 125 126 127 128 129 130 131 132 134 136 138 139 140 150 151 0 
-98 4 35 42 45 46 47 48 79 85 86 87 88 89 90 91 92 93 94 95 96 97 99 102 124 125 126 127 128 129 130 131 132 134 136 138 139 140 150 151 0 
-99 4 35 42 45 46 47 48 79 85 86 87 88 89 90 91 92 93 94 95 96 97 98 102 124 125 126 127 128 129 130 131 132 134 136 138 139 140 150 151 0 
-100 2 43 50 72 83 84 116 121 151 0 
-101 3 151 0 
-102 4 35 42 45 46 47 48 79 85 86 87 88 89 90 91 92 93 94 95 96 97 98 99 124 125 126 127 128 129 130 131 132 134 136 138 139 140 150 151 0 
-103 78 -37 151 0 
-37 151 0 
-27 66 -19 13 17 18 20 24 61 76 104 105 115 146 -54 41 52 60 82 123 151 0 
-22 -104 13 17 18 19 20 24 61 76 105 115 146 -16 151 0 
-82 41 52 54 60 123 154 0 
-30 155 0 
-27 66 -105 13 17 18 19 20 24 61 76 104 115 146 -30 151 0 
-26 12 33 68 -105 13 17 18 19 20 24 61 76 104 115 146 -30 151 0 
-106 151 0 
-107 14 28 57 110 -25 15 31 58 119 120 -16 153 0 
-38 51 67 69 147 -30 -19 13 17 18 20 24 61 76 104 105 115 146 151 0 
-23 55 -59 70 80 122 144 -43 2 50 72 83 84 100 116 121 -10 153 0 
-75 -10 151 0 
-58 15 25 31 119 120 -19 13 17 18 20 24 61 76 104 105 115 146 -10 153 0 
-10 151 0 
-37 152 0 
-108 151 0 
-109 6 7 8 21 71 111 141 143 149 -36 77 -37 151 0 
-110 14 28 57 107 -26 12 33 68 151 0 
-54 41 52 60 82 123 -111 6 7 8 21 71 109 141 143 149 151 0 
-39 151 0 
-70 59 80 122 144 151 0 
-112 151 0 
-113 11 151 0 
-114 152 0 
-13 17 18 19 20 24 61 76 104 105 115 146 153 0 
-115 13 17 18 19 20 24 61 76 104 105 146 153 0 
-20 13 17 18 19 24 61 76 104 105 115 146 153 0 
-17 13 18 19 20 24 61 76 104 105 115 146 -37 153 0 
-24 13 17 18 19 20 61 76 104 105 115 146 153 0 
-33 12 26 68 -16 151 0 
-116 2 43 50 72 83 84 100 121 151 0 
-117 151 0 
-60 41 52 54 82 123 155 0 
-118 151 0 
-119 15 25 31 58 120 151 0 
-120 15 25 31 58 119 -70 59 80 122 144 151 0 
-29 65 151 0 
-56 -100 2 43 50 72 83 84 116 121 151 0 
-63 -100 2 43 50 72 83 84 116 121 151 0 
-41 52 54 60 82 123 154 0 
-121 2 43 50 72 83 84 100 116 152 0 
-122 59 70 80 144 154 0 
-123 41 52 54 60 82 151 0 
-110 14 28 57 107 152 0 
-12 26 33 68 -103 78 152 0 
-103 78 151 0 
-124 4 35 42 45 46 47 48 79 85 86 87 88 89 90 91 92 93 94 95 96 97 98 99 102 125 126 127 128 129 130 131 132 134 136 138 139 140 150 151 0 
-125 4 35 42 45 46 47 48 79 85 86 87 88 89 90 91 92 93 94 95 96 97 98 99 102 124 126 127 128 129 130 131 132 134 136 138 139 140 150 151 0 
-126 4 35 42 45 46 47 48 79 85 86 87 88 89 90 91 92 93 94 95 96 97 98 99 102 124 125 127 128 129 130 131 132 134 136 138 139 140 150 151 0 
-127 4 35 42 45 46 47 48 79 85 86 87 88 89 90 91 92 93 94 95 96 97 98 99 102 124 125 126 128 129 130 131 132 134 136 138 139 140 150 151 0 
-128 4 35 42 45 46 47 48 79 85 86 87 88 89 90 91 92 93 94 95 96 97 98 99 102 124 125 126 127 129 130 131 132 134 136 138 139 140 150 151 0 
-129 4 35 42 45 46 47 48 79 85 86 87 88 89 90 91 92 93 94 95 96 97 98 99 102 124 125 126 127 128 130 131 132 134 136 138 139 140 150 151 0 
-130 4 35 42 45 46 47 48 79 85 86 87 88 89 90 91 92 93 94 95 96 97 98 99 102 124 125 126 127 128 129 131 132 134 136 138 139 140 150 151 0 
-131 4 35 42 45 46 47 48 79 85 86 87 88 89 90 91 92 93 94 95 96 97 98 99 102 124 125 126 127 128 129 130 132 134 136 138 139 140 150 151 0 
-132 4 35 42 45 46 47 48 79 85 86 87 88 89 90 91 92 93 94 95 96 97 98 99 102 124 125 126 127 128 129 130 131 134 136 138 139 140 150 151 0 
-27 66 -34 151 0 
-56 -26 12 33 68 151 0 
-56 -60 41 52 54 82 123 151 0 
-133 151 0 
-121 2 43 50 72 83 84 100 116 151 0 
-134 4 35 42 45 46 47 48 79 85 86 87 88 89 90 91 92 93 94 95 96 97 98 99 102 124 125 126 127 128 129 130 131 132 136 138 139 140 150 151 0 
-135 151 0 
-136 4 35 42 45 46 47 48 79 85 86 87 88 89 90 91 92 93 94 95 96 97 98 99 102 124 125 126 127 128 129 130 131 132 134 138 139 140 150 151 0 
-137 156 0 
-133 151 0 
-138 4 35 42 45 46 47 48 79 85 86 87 88 89 90 91 92 93 94 95 96 97 98 99 102 124 125 126 127 128 129 130 131 132 134 136 139 140 150 151 0 
-139 4 35 42 45 46 47 48 79 85 86 87 88 89 90 91 92 93 94 95 96 97 98 99 102 124 125 126 127 128 129 130 131 132 134 136 138 140 150 151 0 
-140 4 35 42 45 46 47 48 79 85 86 87 88 89 90 91 92 93 94 95 96 97 98 99 102 124 125 126 127 128 129 130 131 132 134 136 138 139 150 151 0 
-1 155 0 
-141 6 7 8 21 71 109 111 143 149 -37 151 0 
-46 4 35 42 45 47 48 79 85 86 87 88 89 90 91 92 93 94 95 96 97 98 99 102 124 125 126 127 128 129 130 131 132 134 136 138 139 140 150 -37 151 0 
-64 5 9 32 53 62 148 -37 152 0 
-5 9 32 53 62 64 148 -37 151 0 
-5 9 32 53 62 64 148 -142 152 0 
-143 6 7 8 21 71 109 111 141 149 151 0 
-144 59 70 80 122 151 0 
-145 151 0 
-63 153 0 
-146 13 17 18 19 20 24 61 76 104 105 115 154 0 
-147 38 51 67 69 151 0 
-148 5 9 32 53 62 64 151 0 
-69 38 51 67 147 151 0 
-114 -10 152 0 
-149 6 7 8 21 71 109 111 141 143 151 0 
-150 4 35 42 45 46 47 48 79 85 86 87 88 89 90 91 92 93 94 95 96 97 98 99 102 124 125 126 127 128 129 130 131 132 134 136 138 139 140 151 0 
-89 4 35 42 45 46 47 48 79 85 86 87 88 90 91 92 93 94 95 96 97 98 99 102 124 125 126 127 128 129 130 131 132 134 136 138 139 140 150 155 0 
-44 155 0 
